100
1555 847
1461 592
780 323
1085 150
376 486
283 700
388 541
1516 831
564 642
603 210
972 24
947 442
687 299
326 980
1576 70
278 619
942 482
493 597
486 541
312 277
1027 893
949 226
941 134
1610 145
1501 300
26 779
259 176
89 160
471 719
760 386
1121 313
1496 671
1409 661
1589 922
24 391
1479 235
1781 734
476 255
605 983
1794 44
525 531
1487 507
910 673
1768 646
13 479
527 224
1414 465
1306 452
104 446
464 554
1155 623
1484 543
1624 850
34 215
379 409
109 232
276 81
82 691
428 380
57 890
163 366
924 554
6 910
950 526
650 271
119 520
579 386
410 492
976 752
1784 650
1202 125
5 730
1348 978
724 954
373 644
1760 943
1065 871
582 944
692 261
1265 539
918 290
1022 556
1143 595
1068 331
355 846
246 394
693 437
231 530
1428 15
224 992
678 941
570 443
185 411
496 225
1324 7
1192 968
206 738
969 933
1497 533
97 806
